c Reduced graph for queen8_12 generated by Cyril Grelier
p edge 96 1368
e 1 2
e 1 3
e 1 4
e 1 5
e 1 8
e 1 10
e 1 11
e 1 13
e 1 14
e 1 15
e 1 16
e 1 19
e 1 23
e 1 25
e 1 27
e 1 28
e 1 30
e 1 34
e 1 36
e 1 39
e 1 40
e 1 45
e 1 50
e 1 53
e 1 58
e 1 65
e 1 66
e 1 73
e 1 80
e 1 85
e 1 86
e 1 95
e 2 4
e 2 5
e 2 6
e 2 7
e 2 9
e 2 12
e 2 13
e 2 14
e 2 15
e 2 16
e 2 20
e 2 24
e 2 26
e 2 27
e 2 28
e 2 29
e 2 33
e 2 35
e 2 39
e 2 40
e 2 46
e 2 51
e 2 54
e 2 57
e 2 65
e 2 66
e 2 74
e 2 79
e 2 85
e 2 86
e 2 96
e 3 4
e 3 5
e 3 6
e 3 7
e 3 8
e 3 12
e 3 14
e 3 15
e 3 17
e 3 18
e 3 19
e 3 21
e 3 25
e 3 27
e 3 31
e 3 32
e 3 33
e 3 36
e 3 41
e 3 42
e 3 45
e 3 49
e 3 55
e 3 60
e 3 67
e 3 68
e 3 73
e 3 77
e 3 87
e 3 88
e 3 95
e 4 5
e 4 6
e 4 7
e 4 8
e 4 9
e 4 11
e 4 13
e 4 15
e 4 17
e 4 18
e 4 22
e 4 23
e 4 26
e 4 29
e 4 34
e 4 37
e 4 41
e 4 42
e 4 48
e 4 50
e 4 54
e 4 57
e 4 61
e 4 67
e 4 68
e 4 76
e 4 79
e 4 87
e 4 88
e 5 6
e 5 8
e 5 9
e 5 10
e 5 12
e 5 14
e 5 16
e 5 17
e 5 18
e 5 21
e 5 24
e 5 25
e 5 30
e 5 35
e 5 38
e 5 41
e 5 42
e 5 47
e 5 51
e 5 53
e 5 58
e 5 62
e 5 67
e 5 68
e 5 75
e 5 80
e 5 87
e 5 88
e 6 9
e 6 10
e 6 11
e 6 13
e 6 16
e 6 17
e 6 18
e 6 20
e 6 22
e 6 26
e 6 28
e 6 31
e 6 32
e 6 33
e 6 36
e 6 41
e 6 42
e 6 46
e 6 52
e 6 56
e 6 59
e 6 67
e 6 68
e 6 74
e 6 78
e 6 87
e 6 88
e 6 96
e 7 8
e 7 9
e 7 10
e 7 11
e 7 15
e 7 17
e 7 19
e 7 20
e 7 21
e 7 24
e 7 25
e 7 26
e 7 29
e 7 31
e 7 33
e 7 39
e 7 43
e 7 44
e 7 49
e 7 52
e 7 54
e 7 57
e 7 63
e 7 69
e 7 70
e 7 79
e 7 81
e 7 89
e 7 90
e 8 9
e 8 10
e 8 11
e 8 12
e 8 13
e 8 16
e 8 19
e 8 20
e 8 21
e 8 23
e 8 27
e 8 32
e 8 34
e 8 38
e 8 43
e 8 44
e 8 47
e 8 50
e 8 55
e 8 60
e 8 62
e 8 69
e 8 70
e 8 75
e 8 77
e 8 89
e 8 90
e 9 10
e 9 11
e 9 12
e 9 14
e 9 15
e 9 19
e 9 20
e 9 22
e 9 24
e 9 28
e 9 31
e 9 35
e 9 37
e 9 43
e 9 44
e 9 48
e 9 51
e 9 56
e 9 59
e 9 61
e 9 69
e 9 70
e 9 76
e 9 78
e 9 89
e 9 90
e 10 12
e 10 16
e 10 18
e 10 19
e 10 20
e 10 22
e 10 23
e 10 25
e 10 26
e 10 30
e 10 32
e 10 36
e 10 40
e 10 43
e 10 44
e 10 49
e 10 52
e 10 53
e 10 58
e 10 64
e 10 69
e 10 70
e 10 80
e 10 82
e 10 89
e 10 90
e 11 12
e 11 13
e 11 17
e 11 21
e 11 22
e 11 23
e 11 24
e 11 28
e 11 29
e 11 30
e 11 31
e 11 34
e 11 39
e 11 45
e 11 46
e 11 50
e 11 52
e 11 56
e 11 59
e 11 63
e 11 71
e 11 72
e 11 78
e 11 81
e 11 91
e 11 92
e 12 14
e 12 18
e 12 21
e 12 22
e 12 23
e 12 24
e 12 27
e 12 29
e 12 30
e 12 32
e 12 35
e 12 40
e 12 45
e 12 46
e 12 49
e 12 51
e 12 55
e 12 60
e 12 64
e 12 71
e 12 72
e 12 77
e 12 82
e 12 91
e 12 92
e 13 14
e 13 15
e 13 17
e 13 20
e 13 23
e 13 25
e 13 26
e 13 33
e 13 34
e 13 35
e 13 37
e 13 38
e 13 43
e 13 46
e 13 50
e 13 55
e 13 56
e 13 63
e 13 64
e 13 71
e 13 74
e 13 83
e 13 84
e 13 93
e 13 96
e 14 16
e 14 18
e 14 19
e 14 24
e 14 25
e 14 26
e 14 34
e 14 35
e 14 36
e 14 37
e 14 38
e 14 44
e 14 45
e 14 51
e 14 55
e 14 56
e 14 63
e 14 64
e 14 72
e 14 73
e 14 83
e 14 84
e 14 94
e 14 95
e 15 16
e 15 17
e 15 21
e 15 22
e 15 25
e 15 27
e 15 28
e 15 31
e 15 33
e 15 35
e 15 37
e 15 39
e 15 40
e 15 43
e 15 48
e 15 49
e 15 61
e 15 65
e 15 66
e 15 71
e 15 76
e 15 85
e 15 86
e 15 93
e 16 18
e 16 21
e 16 22
e 16 26
e 16 27
e 16 28
e 16 32
e 16 34
e 16 36
e 16 38
e 16 39
e 16 40
e 16 44
e 16 47
e 16 52
e 16 62
e 16 65
e 16 66
e 16 72
e 16 75
e 16 85
e 16 86
e 16 94
e 17 18
e 17 19
e 17 24
e 17 27
e 17 29
e 17 35
e 17 37
e 17 39
e 17 41
e 17 42
e 17 43
e 17 47
e 17 52
e 17 53
e 17 59
e 17 63
e 17 67
e 17 68
e 17 71
e 17 81
e 17 87
e 17 88
e 17 93
e 18 20
e 18 23
e 18 28
e 18 30
e 18 34
e 18 38
e 18 40
e 18 41
e 18 42
e 18 44
e 18 48
e 18 49
e 18 54
e 18 60
e 18 64
e 18 67
e 18 68
e 18 72
e 18 82
e 18 87
e 18 88
e 18 94
e 19 20
e 19 21
e 19 23
e 19 27
e 19 29
e 19 36
e 19 37
e 19 41
e 19 43
e 19 44
e 19 45
e 19 47
e 19 51
e 19 53
e 19 59
e 19 65
e 19 69
e 19 70
e 19 73
e 19 83
e 19 89
e 19 90
e 19 95
e 20 22
e 20 24
e 20 28
e 20 30
e 20 33
e 20 38
e 20 42
e 20 43
e 20 44
e 20 46
e 20 48
e 20 50
e 20 54
e 20 60
e 20 66
e 20 69
e 20 70
e 20 74
e 20 84
e 20 89
e 20 90
e 20 96
e 21 22
e 21 23
e 21 25
e 21 29
e 21 30
e 21 31
e 21 33
e 21 38
e 21 41
e 21 45
e 21 46
e 21 47
e 21 49
e 21 51
e 21 62
e 21 65
e 21 71
e 21 72
e 21 75
e 21 83
e 21 91
e 21 92
e 22 24
e 22 26
e 22 29
e 22 30
e 22 32
e 22 36
e 22 37
e 22 42
e 22 45
e 22 46
e 22 48
e 22 50
e 22 52
e 22 61
e 22 66
e 22 71
e 22 72
e 22 76
e 22 84
e 22 91
e 22 92
e 23 24
e 23 31
e 23 32
e 23 34
e 23 40
e 23 41
e 23 47
e 23 48
e 23 49
e 23 50
e 23 51
e 23 57
e 23 58
e 23 64
e 23 65
e 23 73
e 23 74
e 23 82
e 23 83
e 23 93
e 23 94
e 24 31
e 24 32
e 24 35
e 24 39
e 24 42
e 24 47
e 24 48
e 24 50
e 24 51
e 24 52
e 24 57
e 24 58
e 24 63
e 24 66
e 24 73
e 24 74
e 24 81
e 24 84
e 24 93
e 24 94
e 25 26
e 25 27
e 25 30
e 25 31
e 25 33
e 25 34
e 25 37
e 25 38
e 25 41
e 25 49
e 25 53
e 25 55
e 25 56
e 25 58
e 25 63
e 25 64
e 25 69
e 25 80
e 25 83
e 25 84
e 25 91
e 26 28
e 26 29
e 26 32
e 26 35
e 26 36
e 26 37
e 26 38
e 26 42
e 26 52
e 26 54
e 26 55
e 26 56
e 26 57
e 26 63
e 26 64
e 26 70
e 26 79
e 26 83
e 26 84
e 26 92
e 27 28
e 27 29
e 27 32
e 27 34
e 27 37
e 27 39
e 27 40
e 27 41
e 27 47
e 27 53
e 27 55
e 27 59
e 27 60
e 27 65
e 27 66
e 27 69
e 27 77
e 27 85
e 27 86
e 27 91
e 28 30
e 28 31
e 28 35
e 28 38
e 28 39
e 28 40
e 28 42
e 28 48
e 28 54
e 28 56
e 28 59
e 28 60
e 28 65
e 28 66
e 28 70
e 28 78
e 28 85
e 28 86
e 28 92
e 29 30
e 29 31
e 29 37
e 29 43
e 29 45
e 29 46
e 29 47
e 29 50
e 29 53
e 29 54
e 29 57
e 29 59
e 29 67
e 29 71
e 29 72
e 29 79
e 29 85
e 29 91
e 29 92
e 30 32
e 30 38
e 30 44
e 30 45
e 30 46
e 30 48
e 30 51
e 30 53
e 30 54
e 30 58
e 30 60
e 30 68
e 30 71
e 30 72
e 30 80
e 30 86
e 30 91
e 30 92
e 31 32
e 31 33
e 31 43
e 31 47
e 31 48
e 31 49
e 31 50
e 31 56
e 31 57
e 31 58
e 31 59
e 31 67
e 31 73
e 31 74
e 31 78
e 31 85
e 31 93
e 31 94
e 32 36
e 32 44
e 32 47
e 32 48
e 32 51
e 32 52
e 32 55
e 32 57
e 32 58
e 32 60
e 32 68
e 32 73
e 32 74
e 32 77
e 32 86
e 32 93
e 32 94
e 33 34
e 33 35
e 33 36
e 33 37
e 33 39
e 33 46
e 33 49
e 33 53
e 33 54
e 33 61
e 33 62
e 33 67
e 33 74
e 33 77
e 33 78
e 33 81
e 33 82
e 33 89
e 33 96
e 34 35
e 34 36
e 34 41
e 34 44
e 34 50
e 34 53
e 34 54
e 34 61
e 34 62
e 34 69
e 34 72
e 34 77
e 34 78
e 34 81
e 34 82
e 34 91
e 34 94
e 35 36
e 35 42
e 35 43
e 35 51
e 35 53
e 35 54
e 35 61
e 35 62
e 35 70
e 35 71
e 35 77
e 35 78
e 35 81
e 35 82
e 35 92
e 35 93
e 36 38
e 36 40
e 36 45
e 36 52
e 36 53
e 36 54
e 36 61
e 36 62
e 36 68
e 36 73
e 36 77
e 36 78
e 36 81
e 36 82
e 36 90
e 36 95
e 37 38
e 37 39
e 37 47
e 37 48
e 37 53
e 37 55
e 37 56
e 37 59
e 37 61
e 37 63
e 37 64
e 37 67
e 37 76
e 37 83
e 37 84
e 37 89
e 38 40
e 38 47
e 38 48
e 38 54
e 38 55
e 38 56
e 38 60
e 38 62
e 38 63
e 38 64
e 38 68
e 38 75
e 38 83
e 38 84
e 38 90
e 39 40
e 39 41
e 39 43
e 39 45
e 39 52
e 39 55
e 39 57
e 39 61
e 39 63
e 39 65
e 39 66
e 39 67
e 39 75
e 39 81
e 39 85
e 39 86
e 39 89
e 40 42
e 40 44
e 40 46
e 40 49
e 40 56
e 40 58
e 40 62
e 40 64
e 40 65
e 40 66
e 40 68
e 40 76
e 40 82
e 40 85
e 40 86
e 40 90
e 41 42
e 41 43
e 41 45
e 41 51
e 41 55
e 41 57
e 41 61
e 41 65
e 41 67
e 41 68
e 41 69
e 41 75
e 41 83
e 41 87
e 41 88
e 41 91
e 42 44
e 42 46
e 42 50
e 42 56
e 42 58
e 42 62
e 42 66
e 42 67
e 42 68
e 42 70
e 42 76
e 42 84
e 42 87
e 42 88
e 42 92
e 43 44
e 43 45
e 43 50
e 43 55
e 43 57
e 43 61
e 43 67
e 43 69
e 43 70
e 43 71
e 43 75
e 43 85
e 43 89
e 43 90
e 43 93
e 44 46
e 44 51
e 44 56
e 44 58
e 44 62
e 44 68
e 44 69
e 44 70
e 44 72
e 44 76
e 44 86
e 44 89
e 44 90
e 44 94
e 45 46
e 45 47
e 45 49
e 45 55
e 45 57
e 45 61
e 45 69
e 45 71
e 45 72
e 45 73
e 45 75
e 45 87
e 45 91
e 45 92
e 45 95
e 46 48
e 46 52
e 46 56
e 46 58
e 46 62
e 46 70
e 46 71
e 46 72
e 46 74
e 46 76
e 46 88
e 46 91
e 46 92
e 46 96
e 47 48
e 47 49
e 47 53
e 47 57
e 47 58
e 47 59
e 47 62
e 47 69
e 47 73
e 47 74
e 47 75
e 47 87
e 47 93
e 47 94
e 48 52
e 48 54
e 48 57
e 48 58
e 48 60
e 48 61
e 48 70
e 48 73
e 48 74
e 48 76
e 48 88
e 48 93
e 48 94
e 49 50
e 49 51
e 49 52
e 49 59
e 49 60
e 49 64
e 49 69
e 49 75
e 49 76
e 49 79
e 49 80
e 49 82
e 49 87
e 49 95
e 49 96
e 50 51
e 50 52
e 50 59
e 50 60
e 50 66
e 50 67
e 50 75
e 50 76
e 50 79
e 50 80
e 50 84
e 50 85
e 50 95
e 50 96
e 51 52
e 51 59
e 51 60
e 51 65
e 51 68
e 51 75
e 51 76
e 51 79
e 51 80
e 51 83
e 51 86
e 51 95
e 51 96
e 52 59
e 52 60
e 52 63
e 52 70
e 52 75
e 52 76
e 52 79
e 52 80
e 52 81
e 52 88
e 52 95
e 52 96
e 53 54
e 53 55
e 53 58
e 53 59
e 53 61
e 53 62
e 53 65
e 53 77
e 53 78
e 53 80
e 53 81
e 53 82
e 53 87
e 54 56
e 54 57
e 54 60
e 54 61
e 54 62
e 54 66
e 54 77
e 54 78
e 54 79
e 54 81
e 54 82
e 54 88
e 55 56
e 55 57
e 55 60
e 55 61
e 55 63
e 55 64
e 55 65
e 55 75
e 55 77
e 55 83
e 55 84
e 55 87
e 56 58
e 56 59
e 56 62
e 56 63
e 56 64
e 56 66
e 56 76
e 56 78
e 56 83
e 56 84
e 56 88
e 57 58
e 57 59
e 57 61
e 57 71
e 57 73
e 57 74
e 57 75
e 57 79
e 57 89
e 57 93
e 57 94
e 58 60
e 58 62
e 58 72
e 58 73
e 58 74
e 58 76
e 58 80
e 58 90
e 58 93
e 58 94
e 59 60
e 59 71
e 59 75
e 59 76
e 59 78
e 59 79
e 59 80
e 59 89
e 59 95
e 59 96
e 60 72
e 60 75
e 60 76
e 60 77
e 60 79
e 60 80
e 60 90
e 60 95
e 60 96
e 61 62
e 61 63
e 61 75
e 61 76
e 61 77
e 61 78
e 61 81
e 61 82
e 61 85
e 62 64
e 62 75
e 62 76
e 62 77
e 62 78
e 62 81
e 62 82
e 62 86
e 63 64
e 63 65
e 63 67
e 63 69
e 63 71
e 63 73
e 63 77
e 63 79
e 63 81
e 63 83
e 63 84
e 63 85
e 64 66
e 64 68
e 64 70
e 64 72
e 64 74
e 64 78
e 64 80
e 64 82
e 64 83
e 64 84
e 64 86
e 65 66
e 65 67
e 65 69
e 65 71
e 65 73
e 65 77
e 65 79
e 65 83
e 65 85
e 65 86
e 65 87
e 66 68
e 66 70
e 66 72
e 66 74
e 66 78
e 66 80
e 66 84
e 66 85
e 66 86
e 66 88
e 67 68
e 67 69
e 67 71
e 67 73
e 67 77
e 67 79
e 67 85
e 67 87
e 67 88
e 67 89
e 68 70
e 68 72
e 68 74
e 68 78
e 68 80
e 68 86
e 68 87
e 68 88
e 68 90
e 69 70
e 69 71
e 69 73
e 69 77
e 69 79
e 69 87
e 69 89
e 69 90
e 69 91
e 70 72
e 70 74
e 70 78
e 70 80
e 70 88
e 70 89
e 70 90
e 70 92
e 71 72
e 71 73
e 71 77
e 71 79
e 71 89
e 71 91
e 71 92
e 71 93
e 72 74
e 72 78
e 72 80
e 72 90
e 72 91
e 72 92
e 72 94
e 73 74
e 73 75
e 73 77
e 73 79
e 73 91
e 73 93
e 73 94
e 73 95
e 74 76
e 74 78
e 74 80
e 74 92
e 74 93
e 74 94
e 74 96
e 75 76
e 75 79
e 75 80
e 75 91
e 75 95
e 75 96
e 76 79
e 76 80
e 76 92
e 76 95
e 76 96
e 77 78
e 77 79
e 77 81
e 77 82
e 77 83
e 78 80
e 78 81
e 78 82
e 78 84
e 79 80
e 79 93
e 79 95
e 79 96
e 80 94
e 80 95
e 80 96
e 81 82
e 81 83
e 81 85
e 81 87
e 81 89
e 81 91
e 81 93
e 81 95
e 82 84
e 82 86
e 82 88
e 82 90
e 82 92
e 82 94
e 82 96
e 83 84
e 83 85
e 83 87
e 83 89
e 83 91
e 83 93
e 83 95
e 84 86
e 84 88
e 84 90
e 84 92
e 84 94
e 84 96
e 85 86
e 85 87
e 85 89
e 85 91
e 85 93
e 85 95
e 86 88
e 86 90
e 86 92
e 86 94
e 86 96
e 87 88
e 87 89
e 87 91
e 87 93
e 87 95
e 88 90
e 88 92
e 88 94
e 88 96
e 89 90
e 89 91
e 89 93
e 89 95
e 90 92
e 90 94
e 90 96
e 91 92
e 91 93
e 91 95
e 92 94
e 92 96
e 93 94
e 93 95
e 94 96
e 95 96
